SCIP version 5.0.0 [precision: 8 byte] [memory: block] [mode: debug] [LP solver: NONE] [GitHash: 3bbd232]
Copyright (C) 2002-2017 Konrad-Zuse-Zentrum fuer Informationstechnik Berlin (ZIB)

External codes: 
  Readline EditLine w  GNU library for command line editing (gnu.org/s/readline)
  CppAD 20160000.1     Algorithmic Differentiation of C++ algorithms developed by B. Bell (www.coin-or.org/CppAD)
  ZLIB 1.2.5           General purpose compression library by J. Gailly and M. Adler (zlib.net)
  GMP 6.1.2            GNU Multiple Precision Arithmetic Library developed by T. Granlund (gmplib.org)

reading user parameter file <../read_sol/settings/default.set>

read problem <../data/statH.logreg>
============

File name	:	../data/statH.logreg
Problem name 	:	statH
Number of data	:	270
Number of var	:	25
The given data has linear dependence
7 sets of column vector are linearly dependent:
{ 3 4}, { 5 6 7 8}, { 11 12}, { 13 14 15}, { 17 18}, { 20 21 22}, { 24 25 26}, 
unknown variable <t_1> of solution file <statH_05.sol>
  (further unknown variables are ignored)
unknown variable <t_1> of solution file <statH_09.sol>
  (further unknown variables are ignored)
unknown variable <t_1> of solution file <statH_17.sol>
  (further unknown variables are ignored)
read_05
read_09
read_17

1 0 0 1 0 1 0 1 1 0 0 0 0 0 1 1 0 0 1 0 1 0 1 0 0 1 
0 0 0 1 0 1 0 1 1 1 0 0 1 0 0 1 0 0 1 0 1 0 1 0 0 1 
0 0 0 1 0 1 0 1 1 1 0 0 1 0 0 1 0 0 1 0 1 0 1 0 0 1 
k: 11
AIC: 196.171
k: 11
AIC: 195.624
k: 11
AIC: 195.624
